(declare-const delta_p Int)
(declare-const delta_q Int)
(declare-const delta_s Int)
(assert (exists
         ((|q'?1| Int) (|S1,0?2| Real) (|p'?3| Int) (KSUM1?4 Int)
            (|K1,0?5| Int) (K?6 Int) (|s'?7| Int) (|S1,0?8| Real)
            (|p'?9| Int) (KSUM1?10 Int) (|K1,0?11| Int) (K?12 Int)
            (|s'?13| Int) (|p'?14| Int) (s?15 Int) (np?16 Int) (p?17 Int)
            (nq?18 Int) (q?19 Int))
         (and (<= (- q?19) 0) (< (+ (- nq?18) q?19) 0) (<= (- K?12) 0)
                (<= (- |K1,0?11|) 0) (= (+ |K1,0?11| (- K?12)) 0)
                (<= (+ KSUM1?10 (- K?12)) 0)
                (= (+ (- |S1,0?8|) |p'?9| (- |K1,0?11|)) 0)
                (= (+ (- KSUM1?10) |K1,0?11|) 0) (= |S1,0?8| 0)
                (or (and (= K?12 0) (= (+ (- |s'?7|) s?15) 0)
                           (= (- |p'?9|) 0))
                      (and (<= (+ (- K?12) 1) 0) (<= (+ (- np?16) 1) 0)
                             (= (+ (- np?16) |s'?7|) 0)
                             (<= (+ (- |p'?9|) 1) 0)
                             (<= (+ (- np?16) |p'?9|) 0)))
                (= (+ |p'?9| (- K?12)) 0) (<= (- K?12) 0) (<= (- |p'?9|) 0)
                (<= (+ np?16 (- |p'?9|)) 0) (<= (- K?6) 0)
                (<= (- |K1,0?5|) 0) (= (+ |K1,0?5| (- K?6)) 0)
                (<= (+ KSUM1?4 (- K?6)) 0)
                (= (+ (- |S1,0?2|) |p'?3| (- |K1,0?5|)) 0)
                (= (+ (- KSUM1?4) |K1,0?5|) 0) (= |S1,0?2| 0)
                (or (and (= K?6 0) (= (- |p'?3|) 0))
                      (and (<= (+ (- K?6) 1) 0) (<= (+ (- np?16) 1) 0)
                             (<= (+ |p'?3| (- np?16)) 0)
                             (<= (+ (- |p'?3|) 1) 0)))
                (= (+ |p'?3| (- K?6)) 0) (<= (- K?6) 0) (<= (- |p'?3|) 0)
                (<= (+ (- |p'?3|) np?16) 0) (= (+ |s'?13| (- |s'?7|)) 0)
                (= (+ |p'?14| (- |p'?3|)) 0) (= (+ |q'?1| (- q?19) -1) 0)
                (= delta_q (+ |q'?1| (- q?19)))
                (= delta_p (+ |p'?14| (- p?17)))
                (= delta_s (+ |s'?13| (- s?15))))))
(check-sat)
